c SAT Generator for power-law distributed variable frequencies
c -g u -v 20 -c 91 -k 3 -p 2.750000 -b 3.200000 -f /home/schmidt/Devel/ni-kop-sat/data/ensemble/ruf20-91/ruf20-91-505 -u 1 -U 1 -s 500361856
p cnf 20 91
-3 5 16 0
-10 -12 -18 0
3 12 18 0
-1 -15 19 0
-1 6 14 0
-6 7 -11 0
-6 15 -18 0
-1 -9 -13 0
1 -9 20 0
1 -4 -14 0
2 7 19 0
5 -7 16 0
-1 -4 -15 0
6 7 -8 0
2 9 -16 0
-1 4 5 0
-10 -15 -20 0
-2 -11 13 0
-8 16 18 0
2 -3 -12 0
-4 10 12 0
-3 -15 -19 0
8 13 18 0
-5 -10 -17 0
-7 -14 16 0
-3 -12 16 0
-12 18 -19 0
-3 13 -16 0
-12 -16 -19 0
8 14 19 0
6 -12 -17 0
1 -4 -20 0
11 15 19 0
-5 11 19 0
-14 -19 20 0
12 14 15 0
8 12 -14 0
-7 8 -20 0
7 13 17 0
16 18 20 0
-11 -18 20 0
-4 5 15 0
1 16 19 0
-6 8 -10 0
-1 6 -20 0
-4 11 -20 0
-3 5 8 0
-3 -15 -16 0
-6 12 13 0
-1 6 8 0
9 12 20 0
5 8 11 0
2 10 -18 0
-7 8 17 0
2 -7 -14 0
-4 -15 20 0
7 -9 -14 0
7 13 -17 0
-10 -19 -20 0
2 -9 -13 0
1 -5 -15 0
10 -13 -17 0
-9 13 -14 0
-1 3 5 0
-2 -16 20 0
-3 10 -12 0
-15 -18 -20 0
-1 -13 20 0
2 -6 -15 0
14 -17 19 0
-5 -6 -18 0
6 -10 -17 0
2 -16 18 0
-15 -17 -20 0
-5 14 -18 0
8 -14 19 0
9 -13 -15 0
-8 12 -18 0
7 -13 -14 0
7 -10 19 0
6 10 -11 0
6 -15 18 0
-15 17 18 0
4 -5 19 0
-2 -17 19 0
-8 11 -12 0
3 7 13 0
-2 9 -13 0
-8 19 -20 0
4 -11 15 0
9 13 19 0
